caseWidth=10;
caseHeight=10;
caseCapacity=100;
n=20;
price=[44 63 55 10 70 64 62 7 88 70 50 17 36 53 92 99 83 6 15 94];
weight=[2 18 6 15 15 15 8 1 7 18 14 19 1 18 14 9 7 10 5 7];
side=[1 4 4 2 2 3 2 1 3 4 1 1 4 2 2 1 3 2 4 2];
